54
2 22 37 
2 82 46 
2 109 10 
2 31 79 
2 52 40 
2 1 28 
2 19 66 
2 25 55 
2 7 70 
2 16 91 
2 100 13 
2 34 106 
2 43 87 
2 94 73 
2 88 117 
2 118 97 
2 64 85 
3 112 96 116 
3 51 93 119 
3 76 39 98 
3 23 104 68 
3 4 63 48 
3 67 84 54 
3 49 77 47 
1 9 
2 103 110 
1 69 
3 90 75 15 
3 78 120 114 
1 18 
3 14 108 36 
3 115 99 80 
3 27 57 60 
2 72 21 
3 42 44 12 
1 113 
3 102 105 24 
3 101 5 86 
3 3 2 50 
1 81 
3 58 65 62 
1 41 
2 95 56 
3 61 29 20 
3 30 74 107 
2 33 89 
2 111 32 
1 8 
1 53 
3 6 45 35 
3 71 11 92 
1 59 
2 38 26 
2 83 17 
